80 80
34 47
16 6
38 19
37 41
6 24
11 16
30 28
28 32
13 54
17 10
21 35
8 66
36 67
16 9
18 77
25 74
24 8
39 4
10 50
30 49
9 17
13 11
36 68
34 42
18 44
5 46
23 29
35 43
38 23
23 18
29 51
17 39
11 72
19 79
32 56
20 76
22 13
28 37
33 80
6 61
14 69
31 57
32 65
33 58
26 52
26 33
22 22
1 73
10 31
8 2
15 62
29 38
25 14
14 55
2 64
39 5
24 34
3 59
3 75
20 12
37 45
1 40
5 53
31 78
2 15
12 71
15 48
4 60
12 1
27 63
7 21
35 20
19 70
27 26
40 30
21 27
7 3
4 7
9 36
40 25
